c WARNING: for repeatability, setting FPU to use double precision
d VARIABLES            72356        
d CONSTRAINTS          256404       
c ============================[ Problem Statistics ]=============================
c |                                                                             |
c |  Number of variables:         72356                                         |
c |  Number of clauses:          256404                                         |
c |  Parse time:                   0.04 s                                       |
c |                                                                             |
c ============================[ Search Statistics ]==============================
c | Conflicts |          ORIGINAL         |          LEARNT          | Progress |
c |           |    Vars  Clauses Literals |    Limit  Clauses Lit/Cl |          |
c ===============================================================================
c |       100 |   53084   206774   521051 |    75817      100      5 | 26.635 % |
c |       250 |   53084   206774   521051 |    83398      250      8 | 26.635 % |
c |       475 |   53084   206774   521051 |    91738      475     13 | 26.635 % |
c |       812 |   53084   206774   521051 |   100912      812     17 | 26.635 % |
c |      1318 |   53084   206774   521051 |   111003     1318     56 | 26.635 % |
c |      2077 |   53084   206774   521051 |   122104     2077     68 | 26.635 % |
c |      3216 |   53084   206774   521051 |   134314     3216     78 | 26.635 % |
c |      4924 |   53084   206774   521051 |   147746     4924     75 | 26.635 % |
c |      7486 |   53084   206774   521051 |   162520     7486     87 | 26.635 % |
c |     11330 |   53084   206774   521051 |   178772    11330     84 | 26.635 % |
c |     17096 |   53084   206774   521051 |   196650    17096     95 | 26.635 % |
c |     25745 |   53084   206774   521051 |   216315    25745     98 | 26.635 % |
c |     38719 |   53084   206774   521051 |   237946    38719     91 | 26.635 % |
c |     58180 |   53084   206774   521051 |   261741    58180     83 | 26.635 % |
c |     87372 |   53084   206774   521051 |   287915    87372     81 | 26.635 % |
c |    131161 |   53084   206774   521051 |   316706   131161     81 | 26.635 % |
c |    196845 |   53084   206774   521051 |   348377   196845     82 | 26.635 % |
c |    295371 |   53084   206774   521051 |   383215   295371     79 | 26.635 % |
c |    443160 |   53084   206774   521051 |   421536    66343     54 | 26.635 % |
c |    664843 |   52681   205558   518018 |   463690   119406     51 | 27.192 % |
c ===============================================================================
c restarts              : 1429
c conflicts             : 665432         (2824 /sec)
c decisions             : 1308541        (0.00 % random) (5553 /sec)
c propagations          : 589566713      (2501697 /sec)
c conflict literals     : 44292981       (42.20 % deleted)
d RESTARTS             1429
d FAILURES             665432       
d NODES                1308541      
d BACKTRACKS           1308541      
d PROPAGATIONS         589566713    
d NOGOODSIZE           66.56 
d MEMORY               183.00 
d TIME                 235.667 

s UNSATISFIABLE
